rcpsp/heur_output_bi_constraints/Log=5/heurj30.txt
encoding rcpsp/j30.sm/j3035_5.sm nv: 21440 nc: 59975 enctime: 0.46
encoding rcpsp/j30.sm/j3035_5.sm nv: 8174 nc: 22058 enctime: 0.10
c File: j3035_5.smnaivebi5.wcnf
c optimal
c final solution cost: 60
c CPU time: 0.119587
s OPTIMUM FOUND

c File: j3035_5.smbi5.wcnf
c optimal
c final solution cost: 60
c CPU time: 0.021301
s OPTIMUM FOUND


rcpsp/heur_output_bi_constraints/Log=5/heurj30.txt
encoding rcpsp/j30.sm/j3035_6.sm nv: 21710 nc: 63486 enctime: 0.49
encoding rcpsp/j30.sm/j3035_6.sm nv: 8190 nc: 23134 enctime: 0.10
c File: j3035_6.smnaivebi5.wcnf
c optimal
c final solution cost: 57
c CPU time: 0.132789
s OPTIMUM FOUND

c File: j3035_6.smbi5.wcnf
c optimal
c final solution cost: 57
c CPU time: 0.025773
s OPTIMUM FOUND


rcpsp/heur_output_bi_constraints/Log=5/heurj30.txt
encoding rcpsp/j30.sm/j3035_7.sm nv: 21624 nc: 60438 enctime: 0.45
encoding rcpsp/j30.sm/j3035_7.sm nv: 9112 nc: 24742 enctime: 0.11
c File: j3035_7.smnaivebi5.wcnf
c optimal
c final solution cost: 61
c CPU time: 0.141129
s OPTIMUM FOUND

c File: j3035_7.smbi5.wcnf
c optimal
c final solution cost: 61
c CPU time: 0.035936
s OPTIMUM FOUND


rcpsp/heur_output_bi_constraints/Log=5/heurj30.txt
encoding rcpsp/j30.sm/j3035_8.sm nv: 26075 nc: 73997 enctime: 0.56
encoding rcpsp/j30.sm/j3035_8.sm nv: 8791 nc: 24001 enctime: 0.10
c File: j3035_8.smnaivebi5.wcnf
c optimal
c final solution cost: 58
c CPU time: 0.177204
s OPTIMUM FOUND

c File: j3035_8.smbi5.wcnf
c optimal
c final solution cost: 58
c CPU time: 0.025379
s OPTIMUM FOUND


rcpsp/heur_output_bi_constraints/Log=5/heurj30.txt
encoding rcpsp/j30.sm/j3035_9.sm nv: 22806 nc: 68946 enctime: 0.55
encoding rcpsp/j30.sm/j3035_9.sm nv: 10836 nc: 31991 enctime: 0.16
c File: j3035_9.smnaivebi5.wcnf
c optimal
c final solution cost: 59
c CPU time: 0.197289
s OPTIMUM FOUND

c File: j3035_9.smbi5.wcnf
c optimal
c final solution cost: 59
c CPU time: 0.076525
s OPTIMUM FOUND


rcpsp/heur_output_bi_constraints/Log=5/heurj30.txt
encoding rcpsp/j30.sm/j303_5.sm nv: 23892 nc: 67784 enctime: 0.48
encoding rcpsp/j30.sm/j303_5.sm nv: 6468 nc: 17360 enctime: 0.07
c File: j303_5.smnaivebi5.wcnf
c optimal
c final solution cost: 46
c CPU time: 0.144798
s OPTIMUM FOUND

c File: j303_5.smbi5.wcnf
c optimal
c final solution cost: 46
c CPU time: 0.019360
s OPTIMUM FOUND


rcpsp/heur_output_bi_constraints/Log=5/heurj30.txt
encoding rcpsp/j30.sm/j3036_10.sm nv: 24140 nc: 68945 enctime: 0.52
encoding rcpsp/j30.sm/j3036_10.sm nv: 9230 nc: 25580 enctime: 0.11
c File: j3036_10.smnaivebi5.wcnf
c optimal
c final solution cost: 53
c CPU time: 0.135857
s OPTIMUM FOUND

c File: j3036_10.smbi5.wcnf
c optimal
c final solution cost: 53
c CPU time: 0.026199
s OPTIMUM FOUND


rcpsp/heur_output_bi_constraints/Log=5/heurj30.txt
encoding rcpsp/j30.sm/j3036_1.sm nv: 28305 nc: 80186 enctime: 0.61
encoding rcpsp/j30.sm/j3036_1.sm nv: 12087 nc: 33334 enctime: 0.19
c File: j3036_1.smnaivebi5.wcnf
c optimal
c final solution cost: 66
c CPU time: 0.159656
s OPTIMUM FOUND

c File: j3036_1.smbi5.wcnf
c optimal
c final solution cost: 66
c CPU time: 0.038394
s OPTIMUM FOUND


rcpsp/heur_output_bi_constraints/Log=5/heurj30.txt
encoding rcpsp/j30.sm/j3036_2.sm nv: 22720 nc: 62140 enctime: 0.47
encoding rcpsp/j30.sm/j3036_2.sm nv: 6958 nc: 18184 enctime: 0.07
c File: j3036_2.smnaivebi5.wcnf
c optimal
c final solution cost: 44
c CPU time: 0.131167
s OPTIMUM FOUND

c File: j3036_2.smbi5.wcnf
c optimal
c final solution cost: 44
c CPU time: 0.019808
s OPTIMUM FOUND


rcpsp/heur_output_bi_constraints/Log=5/heurj30.txt
encoding rcpsp/j30.sm/j3036_3.sm nv: 25758 nc: 67800 enctime: 0.49
encoding rcpsp/j30.sm/j3036_3.sm nv: 10044 nc: 25702 enctime: 0.12
c File: j3036_3.smnaivebi5.wcnf
c optimal
c final solution cost: 61
c CPU time: 0.129115
s OPTIMUM FOUND

c File: j3036_3.smbi5.wcnf
c optimal
c final solution cost: 61
c CPU time: 0.024877
s OPTIMUM FOUND


rcpsp/heur_output_bi_constraints/Log=5/heurj30.txt
encoding rcpsp/j30.sm/j3036_4.sm nv: 25012 nc: 69384 enctime: 0.52
encoding rcpsp/j30.sm/j3036_4.sm nv: 9916 nc: 26748 enctime: 0.12
c File: j3036_4.smnaivebi5.wcnf
c optimal
c final solution cost: 52
c CPU time: 0.142332
s OPTIMUM FOUND

c File: j3036_4.smbi5.wcnf
c optimal
c final solution cost: 52
c CPU time: 0.034049
s OPTIMUM FOUND


rcpsp/heur_output_bi_constraints/Log=5/heurj30.txt
encoding rcpsp/j30.sm/j3036_5.sm nv: 27692 nc: 75362 enctime: 0.56
encoding rcpsp/j30.sm/j3036_5.sm nv: 11431 nc: 30316 enctime: 0.14
c File: j3036_5.smnaivebi5.wcnf
c optimal
c final solution cost: 64
c CPU time: 0.151602
s OPTIMUM FOUND

c File: j3036_5.smbi5.wcnf
c optimal
c final solution cost: 64
c CPU time: 0.035565
s OPTIMUM FOUND


rcpsp/heur_output_bi_constraints/Log=5/heurj30.txt
encoding rcpsp/j30.sm/j3036_6.sm nv: 22338 nc: 59831 enctime: 0.45
encoding rcpsp/j30.sm/j3036_6.sm nv: 7154 nc: 18439 enctime: 0.08
c File: j3036_6.smnaivebi5.wcnf
c optimal
c final solution cost: 46
c CPU time: 0.114472
s OPTIMUM FOUND

c File: j3036_6.smbi5.wcnf
c optimal
c final solution cost: 46
c CPU time: 0.017350
s OPTIMUM FOUND


rcpsp/heur_output_bi_constraints/Log=5/heurj30.txt
encoding rcpsp/j30.sm/j3036_7.sm nv: 24012 nc: 68234 enctime: 0.53
encoding rcpsp/j30.sm/j3036_7.sm nv: 10074 nc: 27834 enctime: 0.13
c File: j3036_7.smnaivebi5.wcnf
c optimal
c final solution cost: 56
c CPU time: 0.142408
s OPTIMUM FOUND

c File: j3036_7.smbi5.wcnf
c optimal
c final solution cost: 56
c CPU time: 0.033601
s OPTIMUM FOUND


rcpsp/heur_output_bi_constraints/Log=5/heurj30.txt
encoding rcpsp/j30.sm/j3036_8.sm nv: 24168 nc: 64944 enctime: 0.48
encoding rcpsp/j30.sm/j3036_8.sm nv: 9728 nc: 25424 enctime: 0.12
c File: j3036_8.smnaivebi5.wcnf
c optimal
c final solution cost: 56
c CPU time: 0.124693
s OPTIMUM FOUND

c File: j3036_8.smbi5.wcnf
c optimal
c final solution cost: 56
c CPU time: 0.027414
s OPTIMUM FOUND


rcpsp/heur_output_bi_constraints/Log=5/heurj30.txt
encoding rcpsp/j30.sm/j3036_9.sm nv: 28674 nc: 79145 enctime: 0.59
encoding rcpsp/j30.sm/j3036_9.sm nv: 9882 nc: 26365 enctime: 0.11
c File: j3036_9.smnaivebi5.wcnf
c optimal
c final solution cost: 58
c CPU time: 0.151042
s OPTIMUM FOUND

c File: j3036_9.smbi5.wcnf
c optimal
c final solution cost: 58
c CPU time: 0.025850
s OPTIMUM FOUND


rcpsp/heur_output_bi_constraints/Log=5/heurj30.txt
encoding rcpsp/j30.sm/j303_6.sm nv: 21320 nc: 57616 enctime: 0.41
encoding rcpsp/j30.sm/j303_6.sm nv: 9750 nc: 25665 enctime: 0.12
c File: j303_6.smnaivebi5.wcnf
c optimal
c final solution cost: 54
c CPU time: 0.106552
s OPTIMUM FOUND

c File: j303_6.smbi5.wcnf
c optimal
c final solution cost: 54
c CPU time: 0.029342
s OPTIMUM FOUND


rcpsp/heur_output_bi_constraints/Log=5/heurj30.txt
encoding rcpsp/j30.sm/j3037_10.sm nv: 55094 nc: 125727 enctime: 0.80
encoding rcpsp/j30.sm/j3037_10.sm nv: 35152 nc: 79766 enctime: 0.49
c File: j3037_10.smnaivebi5.wcnf
c optimal
c final solution cost: 80
c CPU time: 0.743814
s OPTIMUM FOUND

c File: j3037_10.smbi5.wcnf
c optimal
c final solution cost: 80
c CPU time: 0.289811
s OPTIMUM FOUND


rcpsp/heur_output_bi_constraints/Log=5/heurj30.txt
encoding rcpsp/j30.sm/j3037_1.sm nv: 51997 nc: 120696 enctime: 0.79
encoding rcpsp/j30.sm/j3037_1.sm nv: 29348 nc: 67588 enctime: 0.38
c File: j3037_1.smnaivebi5.wcnf
c optimal
c final solution cost: 79
c CPU time: 0.889797
s OPTIMUM FOUND

c File: j3037_1.smbi5.wcnf
c optimal
c final solution cost: 79
c CPU time: 0.492426
s OPTIMUM FOUND


rcpsp/heur_output_bi_constraints/Log=5/heurj30.txt
encoding rcpsp/j30.sm/j3037_2.sm nv: 57399 nc: 128835 enctime: 0.81
encoding rcpsp/j30.sm/j3037_2.sm nv: 33573 nc: 74847 enctime: 0.46
c File: j3037_2.smnaivebi5.wcnf
c optimal
c final solution cost: 69
c CPU time: 0.458463
s OPTIMUM FOUND

c File: j3037_2.smbi5.wcnf
c optimal
c final solution cost: 69
c CPU time: 0.245373
s OPTIMUM FOUND


rcpsp/heur_output_bi_constraints/Log=5/heurj30.txt
encoding rcpsp/j30.sm/j3037_3.sm nv: 54230 nc: 127058 enctime: 0.83
encoding rcpsp/j30.sm/j3037_3.sm nv: 29986 nc: 69678 enctime: 0.38
c File: j3037_3.smnaivebi5.wcnf
c optimal
c final solution cost: 76
c CPU time: 2.850311
s OPTIMUM FOUND

c File: j3037_3.smbi5.wcnf
c optimal
c final solution cost: 76
c CPU time: 1.782709
s OPTIMUM FOUND


rcpsp/heur_output_bi_constraints/Log=5/heurj30.txt
encoding rcpsp/j30.sm/j3037_4.sm nv: 56536 nc: 137737 enctime: 0.94
encoding rcpsp/j30.sm/j3037_4.sm nv: 35816 nc: 86707 enctime: 0.56
c File: j3037_4.smnaivebi5.wcnf
c optimal
c final solution cost: 81
c CPU time: 1.417970
s OPTIMUM FOUND

c File: j3037_4.smbi5.wcnf
c optimal
c final solution cost: 81
c CPU time: 0.694651
s OPTIMUM FOUND


rcpsp/heur_output_bi_constraints/Log=5/heurj30.txt
encoding rcpsp/j30.sm/j3037_5.sm nv: 64675 nc: 155832 enctime: 1.08
encoding rcpsp/j30.sm/j3037_5.sm nv: 33150 nc: 79008 enctime: 0.44
c File: j3037_5.smnaivebi5.wcnf
c optimal
c final solution cost: 80
c CPU time: 0.843334
s OPTIMUM FOUND

c File: j3037_5.smbi5.wcnf
c optimal
c final solution cost: 80
c CPU time: 0.580556
s OPTIMUM FOUND


rcpsp/heur_output_bi_constraints/Log=5/heurj30.txt
encoding rcpsp/j30.sm/j3037_6.sm nv: 56416 nc: 131194 enctime: 0.86
encoding rcpsp/j30.sm/j3037_6.sm nv: 31816 nc: 73369 enctime: 0.46
c File: j3037_6.smnaivebi5.wcnf
c optimal
c final solution cost: 72
c CPU time: 0.938742
s OPTIMUM FOUND

c File: j3037_6.smbi5.wcnf
c optimal
c final solution cost: 72
c CPU time: 0.545166
s OPTIMUM FOUND


rcpsp/heur_output_bi_constraints/Log=5/heurj30.txt
encoding rcpsp/j30.sm/j3037_7.sm nv: 49856 nc: 116342 enctime: 0.76
encoding rcpsp/j30.sm/j3037_7.sm nv: 33440 nc: 77624 enctime: 0.45
c File: j3037_7.smnaivebi5.wcnf
c optimal
c final solution cost: 92
c CPU time: 3.277070
s OPTIMUM FOUND

c File: j3037_7.smbi5.wcnf
c optimal
c final solution cost: 92
c CPU time: 4.341735
s OPTIMUM FOUND


rcpsp/heur_output_bi_constraints/Log=5/heurj30.txt
encoding rcpsp/j30.sm/j3037_8.sm nv: 50132 nc: 117653 enctime: 0.77
encoding rcpsp/j30.sm/j3037_8.sm nv: 35636 nc: 83237 enctime: 0.49
c File: j3037_8.smnaivebi5.wcnf
c optimal
c final solution cost: 72
c CPU time: 0.759465
s OPTIMUM FOUND

c File: j3037_8.smbi5.wcnf
c optimal
c final solution cost: 72
c CPU time: 0.386281
s OPTIMUM FOUND


rcpsp/heur_output_bi_constraints/Log=5/heurj30.txt
encoding rcpsp/j30.sm/j3037_9.sm nv: 37125 nc: 82704 enctime: 0.49
encoding rcpsp/j30.sm/j3037_9.sm nv: 20790 nc: 45964 enctime: 0.25
c File: j3037_9.smnaivebi5.wcnf
c optimal
c final solution cost: 54
c CPU time: 0.318991
s OPTIMUM FOUND

c File: j3037_9.smbi5.wcnf
c optimal
c final solution cost: 54
c CPU time: 0.206809
s OPTIMUM FOUND


rcpsp/heur_output_bi_constraints/Log=5/heurj30.txt
encoding rcpsp/j30.sm/j303_7.sm nv: 20860 nc: 51930 enctime: 0.36
encoding rcpsp/j30.sm/j303_7.sm nv: 6860 nc: 16430 enctime: 0.07
c File: j303_7.smnaivebi5.wcnf
c optimal
c final solution cost: 48
c CPU time: 0.096211
s OPTIMUM FOUND

c File: j303_7.smbi5.wcnf
c optimal
c final solution cost: 48
c CPU time: 0.014757
s OPTIMUM FOUND


rcpsp/heur_output_bi_constraints/Log=5/heurj30.txt
encoding rcpsp/j30.sm/j3038_10.sm nv: 65048 nc: 147929 enctime: 0.98
encoding rcpsp/j30.sm/j3038_10.sm nv: 23688 nc: 52999 enctime: 0.29
c File: j3038_10.smnaivebi5.wcnf
c optimal
c final solution cost: 57
c CPU time: 0.391052
s OPTIMUM FOUND

c File: j3038_10.smbi5.wcnf
c optimal
c final solution cost: 57
c CPU time: 0.083292
s OPTIMUM FOUND


rcpsp/heur_output_bi_constraints/Log=5/heurj30.txt
encoding rcpsp/j30.sm/j3038_1.sm nv: 58344 nc: 129120 enctime: 0.81
encoding rcpsp/j30.sm/j3038_1.sm nv: 23936 nc: 52300 enctime: 0.28
c File: j3038_1.smnaivebi5.wcnf
c optimal
c final solution cost: 48
c CPU time: 0.367698
s OPTIMUM FOUND

c File: j3038_1.smbi5.wcnf
c optimal
c final solution cost: 48
c CPU time: 0.116463
s OPTIMUM FOUND


rcpsp/heur_output_bi_constraints/Log=5/heurj30.txt
encoding rcpsp/j30.sm/j3038_2.sm nv: 68475 nc: 150824 enctime: 0.96
encoding rcpsp/j30.sm/j3038_2.sm nv: 25730 nc: 55858 enctime: 0.30
c File: j3038_2.smnaivebi5.wcnf
c optimal
c final solution cost: 54
c CPU time: 0.323012
s OPTIMUM FOUND

c File: j3038_2.smbi5.wcnf
c optimal
c final solution cost: 54
c CPU time: 0.091466
s OPTIMUM FOUND


rcpsp/heur_output_bi_constraints/Log=5/heurj30.txt
encoding rcpsp/j30.sm/j3038_3.sm nv: 62016 nc: 134381 enctime: 0.81
encoding rcpsp/j30.sm/j3038_3.sm nv: 31824 nc: 68373 enctime: 0.41
c File: j3038_3.smnaivebi5.wcnf
c optimal
c final solution cost: 58
c CPU time: 0.232448
s OPTIMUM FOUND

c File: j3038_3.smbi5.wcnf
c optimal
c final solution cost: 58
c CPU time: 0.104678
s OPTIMUM FOUND


rcpsp/heur_output_bi_constraints/Log=5/heurj30.txt
encoding rcpsp/j30.sm/j3038_4.sm nv: 82212 nc: 184890 enctime: 1.23
encoding rcpsp/j30.sm/j3038_4.sm nv: 34476 nc: 76674 enctime: 0.41
c File: j3038_4.smnaivebi5.wcnf
c optimal
c final solution cost: 59
c CPU time: 0.480687
s OPTIMUM FOUND

c File: j3038_4.smbi5.wcnf
c optimal
c final solution cost: 59
c CPU time: 0.148402
s OPTIMUM FOUND


rcpsp/heur_output_bi_constraints/Log=5/heurj30.txt
encoding rcpsp/j30.sm/j3038_5.sm nv: 80410 nc: 181149 enctime: 1.20
encoding rcpsp/j30.sm/j3038_5.sm nv: 33540 nc: 74656 enctime: 0.40
c File: j3038_5.smnaivebi5.wcnf
c optimal
c final solution cost: 71
c CPU time: 0.807385
s OPTIMUM FOUND

c File: j3038_5.smbi5.wcnf
c optimal
c final solution cost: 71
c CPU time: 0.135219
s OPTIMUM FOUND


rcpsp/heur_output_bi_constraints/Log=5/heurj30.txt
encoding rcpsp/j30.sm/j3038_6.sm nv: 63070 nc: 142977 enctime: 0.94
encoding rcpsp/j30.sm/j3038_6.sm nv: 28567 nc: 64020 enctime: 0.35
c File: j3038_6.smnaivebi5.wcnf
c optimal
c final solution cost: 59
c CPU time: 0.442244
s OPTIMUM FOUND

c File: j3038_6.smbi5.wcnf
c optimal
c final solution cost: 59
c CPU time: 0.158967
s OPTIMUM FOUND


rcpsp/heur_output_bi_constraints/Log=5/heurj30.txt
encoding rcpsp/j30.sm/j3038_7.sm nv: 61138 nc: 135281 enctime: 0.84
encoding rcpsp/j30.sm/j3038_7.sm nv: 26996 nc: 59085 enctime: 0.36
c File: j3038_7.smnaivebi5.wcnf
c optimal
c final solution cost: 64
c CPU time: 0.220724
s OPTIMUM FOUND

c File: j3038_7.smbi5.wcnf
c optimal
c final solution cost: 64
c CPU time: 0.068369
s OPTIMUM FOUND


rcpsp/heur_output_bi_constraints/Log=5/heurj30.txt
encoding rcpsp/j30.sm/j3038_8.sm nv: 70140 nc: 154911 enctime: 0.98
encoding rcpsp/j30.sm/j3038_8.sm nv: 31080 nc: 67956 enctime: 0.37
c File: j3038_8.smnaivebi5.wcnf
c optimal
c final solution cost: 58
c CPU time: 0.557424
s OPTIMUM FOUND

c File: j3038_8.smbi5.wcnf
c optimal
c final solution cost: 58
c CPU time: 0.144638
s OPTIMUM FOUND


rcpsp/heur_output_bi_constraints/Log=5/heurj30.txt
encoding rcpsp/j30.sm/j3038_9.sm nv: 68913 nc: 155106 enctime: 1.01
encoding rcpsp/j30.sm/j3038_9.sm nv: 29822 nc: 66351 enctime: 0.36
c File: j3038_9.smnaivebi5.wcnf
c optimal
c final solution cost: 63
c CPU time: 0.558014
s OPTIMUM FOUND

c File: j3038_9.smbi5.wcnf
c optimal
c final solution cost: 63
c CPU time: 0.130601
s OPTIMUM FOUND


rcpsp/heur_output_bi_constraints/Log=5/heurj30.txt
encoding rcpsp/j30.sm/j303_8.sm nv: 21216 nc: 55730 enctime: 0.38
encoding rcpsp/j30.sm/j303_8.sm nv: 8704 nc: 22242 enctime: 0.10
c File: j303_8.smnaivebi5.wcnf
c optimal
c final solution cost: 44
c CPU time: 0.101228
s OPTIMUM FOUND

c File: j303_8.smbi5.wcnf
c optimal
c final solution cost: 44
c CPU time: 0.023899
s OPTIMUM FOUND


rcpsp/heur_output_bi_constraints/Log=5/heurj30.txt
encoding rcpsp/j30.sm/j3039_10.sm nv: 60897 nc: 135151 enctime: 0.84
encoding rcpsp/j30.sm/j3039_10.sm nv: 29491 nc: 64795 enctime: 0.39
c File: j3039_10.smnaivebi5.wcnf
c optimal
c final solution cost: 60
c CPU time: 0.253620
s OPTIMUM FOUND

c File: j3039_10.smbi5.wcnf
c optimal
c final solution cost: 60
c CPU time: 0.087760
s OPTIMUM FOUND


